;---
; using 8-bit bit-vectors as characters
; check intersection nonemptiness of .Net regexes
; regexA = ^([A-Z]|[a-z]|[0-9])(((\.|\-)?([A-Z]|[a-z]|[0-9])+)*)@(([A-Z]|[a-z]|[0-9])+)(((\.|\-)?([A-Z]|[a-z]|[0-9])+)*)\. (([A-Z]|[a-z])([A-Z]|[a-z])+)\z
; regexB = ^(\+|\-)?([0-9]*\.?[0-9]+|[0-9]+\.?[0-9]*)((e|E)(\+|\-)?[0-9]+)?\z
;---
(set-info :status unsat)
(set-option :print-success true)
(set-logic QF_BVRE)

(declare-const regexA (RegEx String))
(declare-const regexB (RegEx String))
(declare-const x String)

(assert (= regexA (re.++ (str.to_re "")(re.++ (re.union (re.range "0" "9")(re.union (re.range "A" "Z") (re.range "a" "z")))(re.++ (re.* (re.++ (re.opt (re.range "-" ".")) (re.+ (re.union (re.range "0" "9")(re.union (re.range "A" "Z") (re.range "a" "z"))))))(re.++ (re.range "@" "@")(re.++ (re.+ (re.union (re.range "0" "9")(re.union (re.range "A" "Z") (re.range "a" "z"))))(re.++ (re.* (re.++ (re.opt (re.range "-" ".")) (re.+ (re.union (re.range "0" "9")(re.union (re.range "A" "Z") (re.range "a" "z"))))))(re.++ (str.to_re (seq.++ "." (seq.++ " " "")))(re.++ (re.++ (re.union (re.range "A" "Z") (re.range "a" "z")) (re.+ (re.union (re.range "A" "Z") (re.range "a" "z")))) (str.to_re "")))))))))))

(assert (= regexB (re.++ (str.to_re "")(re.++ (re.opt (re.union (re.range "+" "+") (re.range "-" "-")))(re.++ (re.union (re.++ (re.* (re.range "0" "9"))(re.++ (re.opt (re.range "." ".")) (re.+ (re.range "0" "9")))) (re.++ (re.+ (re.range "0" "9"))(re.++ (re.opt (re.range "." ".")) (re.* (re.range "0" "9")))))(re.++ (re.opt (re.++ (re.union (re.range "E" "E") (re.range "e" "e"))(re.++ (re.opt (re.union (re.range "+" "+") (re.range "-" "-"))) (re.+ (re.range "0" "9"))))) (str.to_re "")))))))

;check that the intersection is nonempty, contains some x
(assert (str.in_re x regexA))
(assert (str.in_re x regexB))
(check-sat)
